(set-info :source |printed by MathSAT|)

1 (4) @37:
(assert true)

4 (12) @52:
(assert true)

12 (16,15,14,13) @52:
(assert true)

16 () @406:
(assert true)

15 () @407:
(assert true)

14 () @52:
(assert true)

13 () @408:
(assert true)

